GLPSOL--GLPK LP/MIP Solver 5.0
Parameter(s) specified in the command line:
 --lp ../modeles/3_489.lp --log 3_489.log
Reading problem data from '../modeles/3_489.lp'...
1480 rows, 2940 columns, 10284 non-zeros
1467 integer variables, all of which are binary
4429 lines were read
GLPK Integer Optimizer 5.0
1480 rows, 2940 columns, 10284 non-zeros
1467 integer variables, all of which are binary
Preprocessing...
1458 constraint coefficient(s) were reduced
1480 rows, 2937 columns, 10281 non-zeros
1467 integer variables, all of which are binary
Scaling...
 A: min|aij| =  1.673e-05  max|aij| =  4.000e+00  ratio =  2.391e+05
GM: min|aij| =  4.522e-02  max|aij| =  2.211e+01  ratio =  4.890e+02
EQ: min|aij| =  2.045e-03  max|aij| =  1.000e+00  ratio =  4.890e+02
2N: min|aij| =  1.953e-03  max|aij| =  1.775e+00  ratio =  9.090e+02
Constructing initial basis...
Size of triangular part is 1480
Solving LP relaxation...
GLPK Simplex Optimizer 5.0
1480 rows, 2937 columns, 10281 non-zeros
      0: obj =   6.000000000e+00 inf =   1.450e+01 (7)
     80: obj =   4.999769990e-01 inf =   0.000e+00 (0)
*   262: obj =  -1.732037933e+00 inf =   1.175e-15 (0)
OPTIMAL LP SOLUTION FOUND
Integer optimization begins...
Long-step dual simplex will be used
+   262: mip =     not found yet >=              -inf        (1; 0)
+   266: >>>>>  -1.732037933e+00 >=  -1.732037933e+00 < 0.1% (4; 0)
+   266: mip =  -1.732037933e+00 >=     tree is empty   0.0% (0; 7)
INTEGER OPTIMAL SOLUTION FOUND
Time used:   0.0 secs
Memory used: 4.3 Mb (4456569 bytes)
